
194
400
   280      2
   279      5
   278      4
   277      2
   275      1
   274      2
   273      2
   272      6
   271      5
   270      6
   269      4
   268      2
   267      3
   266      3
   265      3
   264      4
   263      5
   262      9
   261      7
   260      3
   259      3
   258      1
   257      5
   256      1
   255      2
   254      4
   253      8
   252      5
   251      5
   249      5
   248      1
   247      6
   246      3
   244      4
   243      5
   242      7
   241      2
   240      4
   239      3
   237      4
   236      2
   235      1
   234      4
   233      5
   232      2
   231     10
   230      1
   229      3
   228      5
   227      6
   226      6
   225      4
   224      2
   223      5
   222      4
   221      8
   220      2
   219      3
   218      3
   217      4
   216      2
   215      4
   214      3
   213      2
   212      5
   211      1
   210      3
   209     10
   208      1
   207      4
   206      1
   205      2
   204      4
   203      3
   202      5
   201      6
   200      2
   199      3
   198      1
   197      4
   195      4
   194      3
   193      3
   192      3
   191      7
   190      3
   189      2
   188      2
   187      4
   186      1
   185      5
   184      6
   183      3
   182      3
   181      5
   180      5
   179      2
   178      1
   177      4
   176      6
   175      5
   174      5
   173      4
   172      4
   171      3
   170      6
   169      1
   168      6
   167      2
   166      6
   165      2
   164      3
   163      4
   162      4
   161      4
   160      6
   159      5
   158      4
   157      1
   155      5
   154      4
   153      3
   152      2
   151      5
   150      6
   149      1
   148      4
   147      2
   146      1
   145      2
   144      5
   143      4
   142      5
   141      2
   140      3
   139      1
   138      7
   137      4
   136      3
   135      3
   134      4
   133      5
   132      6
   131      4
   130      2
   129      1
   128      3
   127      5
   126      2
   125      4
   124      2
   123      4
   122      7
   121      2
   120      2
   119      7
   118      3
   117      4
   116      5
   115     10
   114      1
   113     11
   112      3
   111      5
   109      3
   108      5
   107      5
   106      2
   105      6
   104      5
   103      4
   102      4
   101      2
   100      4
    99      6
    98      3
    97      1
    96      4
    95      1
    94      4
    93      4
    92      4
    91      4
    90      4
    89      5
    88      6
    87      6
    86      3
    85      5
    84      8
    83      4
    82      3
    81     10
    80      2




The initial LP solution: time=0.38


File: BPP_750_400_0.2_0.7_2.txt  Instance No. 1
Wed Feb 25 13:47:43 2015

LP solution: lpval=333.45 lpbnd=334

2: 0:1 154:1 obj 1\\
5: 1:1 155:1 obj 1\\
2: 2:1 152:1 obj 1\\
2: 2:1 153:1 obj 1\\
2: 3:1 152:1 obj 1\\
1: 4:1 149:1 obj 1\\
2: 5:1 148:1 obj 1\\
2: 6:1 149:1 obj 1\\
3: 7:1 147:1 obj 1\\
3: 7:1 152:1 obj 1\\
1: 8:1 145:1 obj 1\\
3: 8:1 146:1 obj 1\\
1: 8:1 149:1 obj 1\\
1: 9:1 147:1 obj 1\\
3: 9:1 157:1 obj 1\\
2: 9:1 161:1 obj 1\\
4: 10:1 143:1 obj 1\\
2: 11:1 144:1 obj 1\\
1: 12:1 147:1 obj 1\\
2: 12:1 150:1 obj 1\\
3: 13:1 140:1 obj 1\\
3: 14:1 162:1 obj 1\\
1: 15:1 139:1 obj 1\\
3: 15:1 156:1 obj 1\\
5: 16:1 141:1 obj 1\\
7: 17:1 136:1 obj 1\\
2: 17:1 139:1 obj 1\\
4: 18:1 137:1 obj 1\\
3: 18:1 138:1 obj 1\\
3: 19:1 142:1 obj 1\\
2: 20:1 142:1 obj 1\\
3: 22:1 131:1 obj 1\\
2: 22:1 133:1 obj 1\\
1: 23:1 167:1 obj 1\\
1: 24:1 135:1 obj 1\\
3: 25:1 130:1 obj 1\\
1: 26:1 127:1 obj 1\\
2: 26:1 129:1 obj 1\\
2: 26:1 130:1 obj 1\\
3: 26:1 134:1 obj 1\\
4: 27:1 132:1 obj 1\\
4: 28:1 126:1 obj 1\\
1: 28:1 132:1 obj 1\\
5: 29:1 123:1 obj 1\\
1: 30:1 128:1 obj 1\\
2: 31:1 122:1 obj 1\\
4: 31:1 124:1 obj 1\\
3: 32:1 120:1 obj 1\\
4: 33:1 119:1 obj 1\\
1: 34:1 119:1 obj 1\\
1: 34:1 120:1 obj 1\\
2: 34:1 124:1 obj 1\\
1: 34:1 125:1 obj 1\\
4: 35:1 117:1 obj 1\\
3: 35:1 121:1 obj 1\\
2: 36:1 116:1 obj 1\\
3.6: 37:1 115:1 obj 1\\
0.4: 37:1 193:2 obj 1\\
3: 38:1 114:1 obj 1\\
4: 39:1 112:1 obj 1\\
2: 42:1 110:1 obj 1\\
2.789473684210527: 43:1 109:1 obj 1\\
2: 43:1 187:1 192:1 obj 1\\
0.2105263157894736: 43:1 189:1 192:1 obj 1\\
1.105263157894736: 44:1 107:1 obj 1\\
1: 45:1 106:1 obj 1\\
4.894736842105264: 45:1 107:1 obj 1\\
3.210526315789473: 45:1 109:1 obj 1\\
1: 46:1 108:1 obj 1\\
3: 47:1 104:1 obj 1\\
4: 48:1 103:1 obj 1\\
1: 48:1 108:1 obj 1\\
4: 49:1 102:1 obj 1\\
1: 49:1 184:1 189:1 obj 1\\
1: 49:1 186:1 187:1 obj 1\\
4.894736842105263: 50:1 101:1 obj 1\\
1.105263157894737: 50:1 105:1 obj 1\\
4: 51:1 100:1 obj 1\\
2: 52:1 99:1 obj 1\\
4: 53:1 98:1 obj 1\\
1: 53:1 100:1 obj 1\\
1: 54:1 97:1 obj 1\\
1: 54:1 180:1 188:1 obj 1\\
2: 54:1 184:2 obj 1\\
4: 55:1 99:1 obj 1\\
3.105263157894737: 55:1 179:1 188:1 obj 1\\
0.9035087719298243: 56:1 95:1 obj 1\\
3: 57:1 182:1 183:1 obj 1\\
3: 58:1 93:1 obj 1\\
1.105263157894736: 59:1 174:1 190:1 obj 1\\
0.6052631578947367: 59:1 177:1 186:1 obj 1\\
1.605263157894737: 60:1 94:1 obj 1\\
1: 61:1 91:1 obj 1\\
3: 61:1 92:1 obj 1\\
1: 62:1 89:1 obj 1\\
2: 62:1 96:1 obj 1\\
2: 63:1 90:1 obj 1\\
4: 64:1 169:1 189:1 obj 1\\
1: 65:1 88:1 obj 1\\
1.192982456140351: 66:1 85:1 obj 1\\
1.807017543859649: 66:1 174:1 185:1 obj 1\\
6.5: 67:1 84:1 obj 1\\
1.807017543859649: 67:1 85:1 obj 1\\
1: 67:1 180:2 obj 1\\
1: 68:1 86:1 obj 1\\
2.394736842105263: 69:1 83:1 obj 1\\
1.605263157894737: 69:1 88:1 obj 1\\
1: 70:1 175:1 178:1 obj 1\\
2: 71:1 82:1 obj 1\\
4: 72:1 80:1 obj 1\\
3: 73:1 79:1 obj 1\\
1: 74:1 78:1 obj 1\\
1: 74:1 79:1 obj 1\\
0.3947368421052632: 74:1 94:1 obj 1\\
2: 74:1 172:1 177:1 obj 1\\
0.6052631578947368: 74:1 175:2 obj 1\\
3: 75:1 77:1 obj 1\\
1.131578947368421: 75:1 81:1 obj 1\\
0.6052631578947367: 75:1 83:1 obj 1\\
1: 75:1 168:1 180:1 obj 1\\
1: 76:2 obj 1\\
1.868421052631579: 81:1 170:2 obj 1\\
1: 82:1 171:2 obj 1\\
0.3070175438596485: 86:1 95:1 obj 1\\
2: 87:1 151:1 186:1 obj 1\\
1.394736842105263: 88:1 158:1 177:1 obj 1\\
2: 90:1 166:2 obj 1\\
5: 91:1 163:1 168:1 obj 1\\
1: 94:1 164:1 165:1 obj 1\\
1: 94:1 164:2 obj 1\\
1: 95:1 160:1 167:1 obj 1\\
4.894736842105263: 105:1 159:2 obj 1\\
1: 111:1 140:1 171:1 obj 1\\
1: 113:1 118:1 192:1 obj 1\\
1.802631578947368: 113:1 158:2 obj 1\\
1.197368421052632: 113:1 161:2 obj 1\\
2: 115:1 116:1 192:1 obj 1\\
2: 151:1 174:1 185:2 obj 1\\
0.5: 155:2 192:2 obj 1\\
1: 161:2 182:1 190:1 obj 1\\
1: 161:2 183:1 190:1 obj 1\\
0.8026315789473684: 161:2 186:2 obj 1\\
2: 165:2 181:2 obj 1\\
1: 173:4 obj 1\\
0.5: 84:1 169:2 obj 1\\
0.2105263157894743: 159:1 179:3 obj 1\\
1: 25:1 142:1 obj 1\\
0.09649122807017574: 56:1 185:2 obj 1\\
0.3947368421052633: 60:1 186:2 obj 1\\
1: 20:1 155:1 obj 1\\
1: 21:1 161:1 obj 1\\
1: 40:1 191:2 obj 1\\
1: 40:1 192:2 obj 1\\
1: 41:1 189:1 192:1 obj 1\\
0.8947368421052637: 44:1 188:1 190:1 obj 1\\
1: 27:1 127:1 obj 1\\
0.7894736842105263: 55:1 175:1 192:1 obj 1\\
2.289473684210527: 59:1 95:1 obj 1\\
0.5: 95:1 166:2 obj 1\\
0.8947368421052632: 45:1 189:2 obj 1\\
1: 56:1 176:1 191:1 obj 1\\
1: 64:1 90:1 obj 1\\
0.6929824561403515: 67:1 86:1 obj 1\\
0.2631578947368421: 75:1 170:1 179:1 obj 1\\
1: 94:1 157:1 171:1 obj 1\\
0.2719298245614038: 174:4 obj 1\\
1: 24:1 131:1 obj 1\\
2: 42:1 111:1 obj 1\\
0.1052631578947368: 55:1 101:1 obj 1\\
1: 114:1 116:1 193:1 obj 1\\
0.2: 115:2 193:1 obj 1\\






File: BPP_750_400_0.2_0.7_2.txt  Instance No. 1
Wed Feb 25 13:47:43 2015

LP0 Time: 0.38 IPTime: 0.38 The best integer solution (334):

2: 0:1 154:1 obj 1\\
5: 1:1 155:1 obj 1\\
2: 2:1 152:1 obj 1\\
2: 2:1 153:1 obj 1\\
2: 3:1 152:1 obj 1\\
1: 4:1 149:1 obj 1\\
2: 5:1 148:1 obj 1\\
2: 6:1 149:1 obj 1\\
3: 7:1 147:1 obj 1\\
3: 7:1 152:1 obj 1\\
1: 8:1 145:1 obj 1\\
3: 8:1 146:1 obj 1\\
1: 8:1 149:1 obj 1\\
1: 9:1 147:1 obj 1\\
4: 9:1 157:1 obj 1\\
1: 9:1 161:1 obj 1\\
4: 10:1 143:1 obj 1\\
2: 11:1 144:1 obj 1\\
1: 12:1 147:1 obj 1\\
2: 12:1 150:1 obj 1\\
3: 13:1 140:1 obj 1\\
3: 14:1 162:1 obj 1\\
1: 15:1 139:1 obj 1\\
3: 15:1 156:1 obj 1\\
5: 16:1 141:1 obj 1\\
7: 17:1 136:1 obj 1\\
2: 17:1 139:1 obj 1\\
4: 18:1 137:1 obj 1\\
3: 18:1 138:1 obj 1\\
3: 19:1 142:1 obj 1\\
3: 20:1 142:1 obj 1\\
1: 21:1 191:1 obj 1\\
4: 22:1 131:1 obj 1\\
1: 22:1 133:1 obj 1\\
1: 23:1 167:1 obj 1\\
1: 24:1 135:1 obj 1\\
1: 24:1 176:1 obj 1\\
4: 25:1 130:1 obj 1\\
2: 26:1 127:1 obj 1\\
2: 26:1 129:1 obj 1\\
1: 26:1 130:1 obj 1\\
3: 26:1 134:1 obj 1\\
4: 27:1 132:1 obj 1\\
1: 27:1 133:1 obj 1\\
4: 28:1 126:1 obj 1\\
1: 28:1 132:1 obj 1\\
5: 29:1 123:1 obj 1\\
1: 30:1 128:1 obj 1\\
2: 31:1 122:1 obj 1\\
4: 31:1 124:1 obj 1\\
3: 32:1 120:1 obj 1\\
4: 33:1 119:1 obj 1\\
1: 34:1 119:1 obj 1\\
1: 34:1 120:1 obj 1\\
2: 34:1 124:1 obj 1\\
1: 34:1 125:1 obj 1\\
4: 35:1 117:1 obj 1\\
3: 35:1 121:1 obj 1\\
2: 36:1 116:1 obj 1\\
3: 37:1 115:1 obj 1\\
1: 37:1 193:2 obj 1\\
1: 38:1 114:1 obj 1\\
2: 38:1 115:1 obj 1\\
4: 39:1 112:1 obj 1\\
2: 40:1 111:1 obj 1\\
1: 41:1 110:1 obj 1\\
1: 42:1 110:1 obj 1\\
3: 42:1 114:1 obj 1\\
1: 43:1 109:1 obj 1\\
2: 43:1 187:1 192:1 obj 1\\
2: 43:1 189:1 192:1 obj 1\\
2: 44:1 107:1 obj 1\\
1: 45:1 106:1 obj 1\\
4: 45:1 107:1 obj 1\\
5: 45:1 109:1 obj 1\\
1: 46:1 108:1 obj 1\\
3: 47:1 104:1 obj 1\\
4: 48:1 103:1 obj 1\\
1: 48:1 108:1 obj 1\\
4: 49:1 102:1 obj 1\\
1: 49:1 184:1 189:1 obj 1\\
1: 49:1 186:1 187:1 obj 1\\
5: 50:1 101:1 obj 1\\
1: 50:1 105:1 obj 1\\
4: 51:1 100:1 obj 1\\
2: 52:1 99:1 obj 1\\
4: 53:1 98:1 obj 1\\
1: 53:1 100:1 obj 1\\
1: 54:1 97:1 obj 1\\
1: 54:1 180:1 188:1 obj 1\\
2: 54:1 184:2 obj 1\\
4: 55:1 99:1 obj 1\\
4: 55:1 179:1 188:1 obj 1\\
2: 56:1 95:1 obj 1\\
3: 57:1 182:1 183:1 obj 1\\
3: 58:1 93:1 obj 1\\
1: 59:1 174:1 190:1 obj 1\\
2: 59:1 174:1 192:1 obj 1\\
1: 59:1 177:1 186:1 obj 1\\
2: 60:1 94:1 obj 1\\
1: 61:1 91:1 obj 1\\
3: 61:1 92:1 obj 1\\
1: 62:1 89:1 obj 1\\
2: 62:1 96:1 obj 1\\
2: 63:1 90:1 obj 1\\
5: 64:1 169:1 189:1 obj 1\\
1: 65:1 88:1 obj 1\\
1: 66:1 85:1 obj 1\\
1: 66:1 171:1 185:1 obj 1\\
1: 66:1 174:1 185:1 obj 1\\
7: 67:1 84:1 obj 1\\
2: 67:1 85:1 obj 1\\
1: 67:1 180:2 obj 1\\
1: 68:1 86:1 obj 1\\
2: 69:1 83:1 obj 1\\
2: 69:1 88:1 obj 1\\
1: 70:1 175:1 178:1 obj 1\\
2: 71:1 82:1 obj 1\\
4: 72:1 80:1 obj 1\\
3: 73:1 79:1 obj 1\\
1: 74:1 78:1 obj 1\\
1: 74:1 79:1 obj 1\\
1: 74:1 94:1 obj 1\\
1: 74:1 172:1 177:1 obj 1\\
1: 74:1 175:2 obj 1\\
3: 75:1 77:1 obj 1\\
1: 75:1 81:1 obj 1\\
1: 75:1 83:1 obj 1\\
1: 75:1 168:1 180:1 obj 1\\
1: 76:2 obj 1\\
2: 81:1 170:2 obj 1\\
1: 82:1 171:2 obj 1\\
1: 86:1 95:1 obj 1\\
2: 87:1 151:1 186:1 obj 1\\
1: 88:1 158:1 177:1 obj 1\\
1: 90:1 161:1 172:1 obj 1\\
2: 90:1 166:2 obj 1\\
5: 91:1 163:1 168:1 obj 1\\
1: 94:1 164:1 165:1 obj 1\\
1: 94:1 164:2 obj 1\\
1: 95:1 160:1 167:1 obj 1\\
1: 95:1 191:1 obj 1\\
5: 105:1 159:2 obj 1\\
1: 111:1 140:1 171:1 obj 1\\
1: 113:1 118:1 192:1 obj 1\\
2: 113:1 158:2 obj 1\\
1: 113:1 161:2 obj 1\\
1: 115:1 116:1 192:1 obj 1\\
1: 116:2 191:1 obj 1\\
2: 151:1 174:1 185:2 obj 1\\
1: 155:2 192:2 obj 1\\
1: 161:1 166:1 177:1 190:1 obj 1\\
1: 161:2 182:1 190:1 obj 1\\
1: 161:2 183:1 190:1 obj 1\\
1: 161:2 186:2 obj 1\\
2: 165:2 181:2 obj 1\\
1: 173:4 obj 1\\



The last LP solution 


File: BPP_750_400_0.2_0.7_2.txt  Instance No. 1
Wed Feb 25 13:47:43 2015

LP solution: lpval=333.45 lpbnd=334

2: 0:1 154:1 obj 1\\
5: 1:1 155:1 obj 1\\
2: 2:1 152:1 obj 1\\
2: 2:1 153:1 obj 1\\
2: 3:1 152:1 obj 1\\
1: 4:1 149:1 obj 1\\
2: 5:1 148:1 obj 1\\
2: 6:1 149:1 obj 1\\
3: 7:1 147:1 obj 1\\
3: 7:1 152:1 obj 1\\
1: 8:1 145:1 obj 1\\
3: 8:1 146:1 obj 1\\
1: 8:1 149:1 obj 1\\
1: 9:1 147:1 obj 1\\
3: 9:1 157:1 obj 1\\
2: 9:1 161:1 obj 1\\
4: 10:1 143:1 obj 1\\
2: 11:1 144:1 obj 1\\
1: 12:1 147:1 obj 1\\
2: 12:1 150:1 obj 1\\
3: 13:1 140:1 obj 1\\
3: 14:1 162:1 obj 1\\
1: 15:1 139:1 obj 1\\
3: 15:1 156:1 obj 1\\
5: 16:1 141:1 obj 1\\
7: 17:1 136:1 obj 1\\
2: 17:1 139:1 obj 1\\
4: 18:1 137:1 obj 1\\
3: 18:1 138:1 obj 1\\
3: 19:1 142:1 obj 1\\
2: 20:1 142:1 obj 1\\
3: 22:1 131:1 obj 1\\
2: 22:1 133:1 obj 1\\
1: 23:1 167:1 obj 1\\
1: 24:1 135:1 obj 1\\
3: 25:1 130:1 obj 1\\
1: 26:1 127:1 obj 1\\
2: 26:1 129:1 obj 1\\
2: 26:1 130:1 obj 1\\
3: 26:1 134:1 obj 1\\
4: 27:1 132:1 obj 1\\
4: 28:1 126:1 obj 1\\
1: 28:1 132:1 obj 1\\
5: 29:1 123:1 obj 1\\
1: 30:1 128:1 obj 1\\
2: 31:1 122:1 obj 1\\
4: 31:1 124:1 obj 1\\
3: 32:1 120:1 obj 1\\
4: 33:1 119:1 obj 1\\
1: 34:1 119:1 obj 1\\
1: 34:1 120:1 obj 1\\
2: 34:1 124:1 obj 1\\
1: 34:1 125:1 obj 1\\
4: 35:1 117:1 obj 1\\
3: 35:1 121:1 obj 1\\
2: 36:1 116:1 obj 1\\
3.6: 37:1 115:1 obj 1\\
0.4: 37:1 193:2 obj 1\\
3: 38:1 114:1 obj 1\\
4: 39:1 112:1 obj 1\\
2: 42:1 110:1 obj 1\\
2.789473684210527: 43:1 109:1 obj 1\\
2: 43:1 187:1 192:1 obj 1\\
0.2105263157894736: 43:1 189:1 192:1 obj 1\\
1.105263157894736: 44:1 107:1 obj 1\\
1: 45:1 106:1 obj 1\\
4.894736842105264: 45:1 107:1 obj 1\\
3.210526315789473: 45:1 109:1 obj 1\\
1: 46:1 108:1 obj 1\\
3: 47:1 104:1 obj 1\\
4: 48:1 103:1 obj 1\\
1: 48:1 108:1 obj 1\\
4: 49:1 102:1 obj 1\\
1: 49:1 184:1 189:1 obj 1\\
1: 49:1 186:1 187:1 obj 1\\
4.894736842105263: 50:1 101:1 obj 1\\
1.105263157894737: 50:1 105:1 obj 1\\
4: 51:1 100:1 obj 1\\
2: 52:1 99:1 obj 1\\
4: 53:1 98:1 obj 1\\
1: 53:1 100:1 obj 1\\
1: 54:1 97:1 obj 1\\
1: 54:1 180:1 188:1 obj 1\\
2: 54:1 184:2 obj 1\\
4: 55:1 99:1 obj 1\\
3.105263157894737: 55:1 179:1 188:1 obj 1\\
0.9035087719298243: 56:1 95:1 obj 1\\
3: 57:1 182:1 183:1 obj 1\\
3: 58:1 93:1 obj 1\\
1.105263157894736: 59:1 174:1 190:1 obj 1\\
0.6052631578947367: 59:1 177:1 186:1 obj 1\\
1.605263157894737: 60:1 94:1 obj 1\\
1: 61:1 91:1 obj 1\\
3: 61:1 92:1 obj 1\\
1: 62:1 89:1 obj 1\\
2: 62:1 96:1 obj 1\\
2: 63:1 90:1 obj 1\\
4: 64:1 169:1 189:1 obj 1\\
1: 65:1 88:1 obj 1\\
1.192982456140351: 66:1 85:1 obj 1\\
1.807017543859649: 66:1 174:1 185:1 obj 1\\
6.5: 67:1 84:1 obj 1\\
1.807017543859649: 67:1 85:1 obj 1\\
1: 67:1 180:2 obj 1\\
1: 68:1 86:1 obj 1\\
2.394736842105263: 69:1 83:1 obj 1\\
1.605263157894737: 69:1 88:1 obj 1\\
1: 70:1 175:1 178:1 obj 1\\
2: 71:1 82:1 obj 1\\
4: 72:1 80:1 obj 1\\
3: 73:1 79:1 obj 1\\
1: 74:1 78:1 obj 1\\
1: 74:1 79:1 obj 1\\
0.3947368421052632: 74:1 94:1 obj 1\\
2: 74:1 172:1 177:1 obj 1\\
0.6052631578947368: 74:1 175:2 obj 1\\
3: 75:1 77:1 obj 1\\
1.131578947368421: 75:1 81:1 obj 1\\
0.6052631578947367: 75:1 83:1 obj 1\\
1: 75:1 168:1 180:1 obj 1\\
1: 76:2 obj 1\\
1.868421052631579: 81:1 170:2 obj 1\\
1: 82:1 171:2 obj 1\\
0.3070175438596485: 86:1 95:1 obj 1\\
2: 87:1 151:1 186:1 obj 1\\
1.394736842105263: 88:1 158:1 177:1 obj 1\\
2: 90:1 166:2 obj 1\\
5: 91:1 163:1 168:1 obj 1\\
1: 94:1 164:1 165:1 obj 1\\
1: 94:1 164:2 obj 1\\
1: 95:1 160:1 167:1 obj 1\\
4.894736842105263: 105:1 159:2 obj 1\\
1: 111:1 140:1 171:1 obj 1\\
1: 113:1 118:1 192:1 obj 1\\
1.802631578947368: 113:1 158:2 obj 1\\
1.197368421052632: 113:1 161:2 obj 1\\
2: 115:1 116:1 192:1 obj 1\\
2: 151:1 174:1 185:2 obj 1\\
0.5: 155:2 192:2 obj 1\\
1: 161:2 182:1 190:1 obj 1\\
1: 161:2 183:1 190:1 obj 1\\
0.8026315789473684: 161:2 186:2 obj 1\\
2: 165:2 181:2 obj 1\\
1: 173:4 obj 1\\
0.5: 84:1 169:2 obj 1\\
0.2105263157894743: 159:1 179:3 obj 1\\
1: 25:1 142:1 obj 1\\
0.09649122807017574: 56:1 185:2 obj 1\\
0.3947368421052633: 60:1 186:2 obj 1\\
1: 20:1 155:1 obj 1\\
1: 21:1 161:1 obj 1\\
1: 40:1 191:2 obj 1\\
1: 40:1 192:2 obj 1\\
1: 41:1 189:1 192:1 obj 1\\
0.8947368421052637: 44:1 188:1 190:1 obj 1\\
1: 27:1 127:1 obj 1\\
0.7894736842105263: 55:1 175:1 192:1 obj 1\\
2.289473684210527: 59:1 95:1 obj 1\\
0.5: 95:1 166:2 obj 1\\
0.8947368421052632: 45:1 189:2 obj 1\\
1: 56:1 176:1 191:1 obj 1\\
1: 64:1 90:1 obj 1\\
0.6929824561403515: 67:1 86:1 obj 1\\
0.2631578947368421: 75:1 170:1 179:1 obj 1\\
1: 94:1 157:1 171:1 obj 1\\
0.2719298245614038: 174:4 obj 1\\
1: 24:1 131:1 obj 1\\
2: 42:1 111:1 obj 1\\
0.1052631578947368: 55:1 101:1 obj 1\\
1: 114:1 116:1 193:1 obj 1\\
0.2: 115:2 193:1 obj 1\\



